(set-logic ALL)
(set-option :produce-models true)
(define-fun-rec str.toLower ((x String)) String
  (ite (= x "")
      ""
      (let ((Head (str.at x 0)))
        (str.++ 
          (ite (and (<= 65 (str.to_code Head)) 
                     (<= (str.to_code Head) 90))
               (str.from_code (+ (str.to_code Head) 32))
               Head)
          (str.toLower (str.substr x 1 (- (str.len x) 1)))))))
(declare-fun sym609 () String)
(declare-fun sym205 () String)
(declare-fun sym569 () String)
(declare-fun sym647 () String)
(declare-fun sym328 () String)
(declare-fun sym725 () String)
(declare-fun sym529 () String)
(declare-fun sym805 () String)
(declare-fun sym409 () String)
(declare-fun sym681 () String)
(declare-fun sym363 () String)
(declare-fun sym485 () String)
(declare-fun sym761 () String)
(declare-fun sym289 () String)
(declare-fun sym445 () String)
(declare-fun sym160 () String)
(declare-fun sym579 () String)
(declare-fun sym338 () String)
(declare-fun sym657 () String)
(declare-fun sym735 () String)
(declare-fun sym539 () String)
(declare-fun sym419 () String)
(declare-fun sym815 () String)
(declare-fun sym619 () String)
(declare-fun sym373 () String)
(declare-fun sym175 () String)
(declare-fun sym254 () String)
(declare-fun sym771 () String)
(declare-fun sym299 () String)
(declare-fun sym135 () String)
(declare-fun sym455 () String)
(declare-fun sym499 () String)
(declare-fun sym215 () String)
(declare-fun sym691 () String)
(declare-fun sym20 () String)
(declare-fun sym549 () String)
(declare-fun sym825 () String)
(declare-fun sym429 () String)
(declare-fun sym705 () String)
(declare-fun sym509 () String)
(declare-fun sym264 () String)
(declare-fun sym781 () String)
(declare-fun sym465 () String)
(declare-fun sym389 () String)
(declare-fun sym225 () String)
(declare-fun sym589 () String)
(declare-fun sym185 () String)
(declare-fun sym239 () String)
(declare-fun sym559 () String)
(declare-fun sym715 () String)
(declare-fun sym519 () String)
(declare-fun sym791 () String)
(declare-fun sym671 () String)
(declare-fun sym353 () String)
(declare-fun sym475 () String)
(declare-fun sym113 () String)
(declare-fun sym751 () String)
(declare-fun sym399 () String)
(declare-fun sym279 () String)
(declare-fun sym313 () String)
(declare-fun sym599 () String)
(declare-fun sym633 () String)
(declare-fun sym150 () String)
(declare-fun sym195 () String)

(assert (= (str.toLower sym113 )(str.toLower "database" )))
(assert (not (= (str.toLower sym751 )(str.toLower "name" ))))
(assert (not (= (str.toLower sym185 )(str.toLower "description" ))))
(assert (= (str.toLower sym20 )"html" ))
(assert (not (= (str.toLower sym671 )(str.toLower "name" ))))
(assert (= (str.toLower sym264 )(str.toLower "description" )))
(assert (not (= (str.toLower sym559 )(str.toLower "description" ))))
(assert (not (= (str.toLower sym509 )(str.toLower "description" ))))
(assert (not (= (str.toLower sym647 )(str.toLower "name" ))))
(assert (not (= (str.toLower sym195 )(str.toLower "table" ))))
(assert (not (= (str.toLower sym205 )(str.toLower "name" ))))
(assert (not (= (str.toLower sym419 )(str.toLower "length" ))))
(assert (= (str.toLower sym373 )(str.toLower "type" )))
(assert (not (= (str.toLower sym254 )(str.toLower "name" ))))
(assert (= (str.toLower sym338 )(str.toLower "description" )))
(assert (= (str.toLower sym691 )(str.toLower "type" )))
(assert (= (str.toLower sym633 )(str.toLower "name" )))
(assert (= (str.toLower sym135 )(str.toLower "name" )))
(assert (not (= (str.toLower sym150 )(str.toLower "name" ))))
(assert (not (= (str.toLower sym825 )(str.toLower "field" ))))
(assert (not (= (str.toLower sym363 )(str.toLower "description" ))))
(assert (not (= (str.toLower sym815 )(str.toLower "description" ))))
(assert (not (= (str.toLower sym289 )(str.toLower "description" ))))
(assert (not (= (str.toLower sym705 )(str.toLower "name" ))))
(assert (not (= (str.toLower sym781 )(str.toLower "length" ))))
(assert (not (= (str.toLower sym475 )(str.toLower "length" ))))
(assert (not (= (str.toLower sym805 )(str.toLower "name" ))))
(assert (not (= (str.toLower sym715 )(str.toLower "description" ))))
(assert (not (= (str.toLower sym589 )(str.toLower "option" ))))
(assert (not (= (str.toLower sym399 )(str.toLower "description" ))))
(assert (= (str.toLower sym160 )(str.toLower "description" )))
(assert (not (= (str.toLower sym539 )(str.toLower "option" ))))
(assert (= (str.toLower sym657 )(str.toLower "description" )))
(assert (= (str.toLower sym791 )(str.toLower "option" )))
(assert (not (= (str.toLower sym328 )(str.toLower "name" ))))
(assert (not (= (str.toLower sym609 )(str.toLower "description" ))))
(assert (= (str.toLower sym239 )(str.toLower "name" )))
(assert (not (= (str.toLower sym465 )(str.toLower "type" ))))
(assert (not (= (str.toLower sym681 )(str.toLower "description" ))))
(assert (= (str.toLower sym485 )(str.toLower "option" )))
(assert (not (= (str.toLower sym549 )(str.toLower "name" ))))
(assert (= (str.toLower sym313 )(str.toLower "name" )))
(assert (not (= (str.toLower sym279 )(str.toLower "name" ))))
(assert (not (= (str.toLower sym599 )(str.toLower "name" ))))
(assert (not (= (str.toLower sym519 )(str.toLower "type" ))))
(assert (not (= (str.toLower sym771 )(str.toLower "type" ))))
(assert (= (str.toLower sym429 )(str.toLower "option" )))
(assert (not (= (str.toLower sym579 )(str.toLower "length" ))))
(assert (not (= (str.toLower sym725 )(str.toLower "type" ))))
(assert (not (= (str.toLower sym353 )(str.toLower "name" ))))
(assert (not (= (str.toLower sym215 )(str.toLower "description" ))))
(assert (= (str.toLower sym225 )(str.toLower "table" )))
(assert (not (= (str.toLower sym389 )(str.toLower "name" ))))
(assert (not (= (str.toLower sym455 )(str.toLower "description" ))))
(assert (= (str.toLower sym299 )(str.toLower "field" )))
(assert (not (= (str.toLower sym761 )(str.toLower "description" ))))
(assert (= (str.toLower sym735 )(str.toLower "length" )))
(assert (not (= (str.toLower sym529 )(str.toLower "length" ))))
(assert (not (= (str.toLower sym409 )(str.toLower "type" ))))
(assert (not (= (str.toLower sym499 )(str.toLower "name" ))))
(assert (not (= (str.toLower sym20 )"sql" )))
(assert (= (str.toLower sym619 )(str.toLower "field" )))
(assert (not (= (str.toLower sym175 )(str.toLower "name" ))))
(assert (not (= (str.toLower sym445 )(str.toLower "name" ))))
(assert (not (= (str.toLower sym569 )(str.toLower "type" ))))
(check-sat)
(get-model)
(exit)
